c *********************************
c * Circuit generated by BenCGen
c *
c * CarrySkipAdder_66_66_66_InOut_G4T
c *
c * Ports with 1 gate(s): 19
c * Ports with 2 gate(s): 366
c * Ports with 4 gate(s): 16
c * Total gates: 401
c *********************************
p cnf 533 1348
1 201 0
-1 -201 0
1 -200 0
201 -200 0
-1 -201 200 0
1 67 -204 0
-1 67 204 0
1 -67 204 0
-1 -67 -204 0
204 200 -133 0
-204 200 133 0
204 -200 133 0
-204 -200 -133 0
200 -205 0
204 -205 0
-200 -204 205 0
67 -206 0
1 -206 0
-67 -1 206 0
-205 203 0
-206 203 0
205 206 -203 0
2 68 -208 0
-2 68 208 0
2 -68 208 0
-2 -68 -208 0
208 203 -134 0
-208 203 134 0
208 -203 134 0
-208 -203 -134 0
203 -209 0
208 -209 0
-203 -208 209 0
68 -210 0
2 -210 0
-68 -2 210 0
-209 207 0
-210 207 0
209 210 -207 0
3 69 -212 0
-3 69 212 0
3 -69 212 0
-3 -69 -212 0
212 207 -135 0
-212 207 135 0
212 -207 135 0
-212 -207 -135 0
207 -213 0
212 -213 0
-207 -212 213 0
69 -214 0
3 -214 0
-69 -3 214 0
-213 211 0
-214 211 0
213 214 -211 0
4 70 -215 0
-4 70 215 0
4 -70 215 0
-4 -70 -215 0
215 211 -136 0
-215 211 136 0
215 -211 136 0
-215 -211 -136 0
211 -216 0
215 -216 0
-211 -215 216 0
70 -217 0
4 -217 0
-70 -4 217 0
-216 202 0
-217 202 0
216 217 -202 0
204 -218 0
208 -218 0
212 -218 0
215 -218 0
-204 -208 -212 -215 218 0
217 -219 0
-217 219 0
200 -220 0
218 -220 0
-200 -218 220 0
-220 221 0
-202 221 0
220 202 -221 0
5 71 -224 0
-5 71 224 0
5 -71 224 0
-5 -71 -224 0
224 221 -137 0
-224 221 137 0
224 -221 137 0
-224 -221 -137 0
221 -225 0
224 -225 0
-221 -224 225 0
71 -226 0
5 -226 0
-71 -5 226 0
-225 223 0
-226 223 0
225 226 -223 0
6 72 -228 0
-6 72 228 0
6 -72 228 0
-6 -72 -228 0
228 223 -138 0
-228 223 138 0
228 -223 138 0
-228 -223 -138 0
223 -229 0
228 -229 0
-223 -228 229 0
72 -230 0
6 -230 0
-72 -6 230 0
-229 227 0
-230 227 0
229 230 -227 0
7 73 -232 0
-7 73 232 0
7 -73 232 0
-7 -73 -232 0
232 227 -139 0
-232 227 139 0
232 -227 139 0
-232 -227 -139 0
227 -233 0
232 -233 0
-227 -232 233 0
73 -234 0
7 -234 0
-73 -7 234 0
-233 231 0
-234 231 0
233 234 -231 0
8 74 -235 0
-8 74 235 0
8 -74 235 0
-8 -74 -235 0
235 231 -140 0
-235 231 140 0
235 -231 140 0
-235 -231 -140 0
231 -236 0
235 -236 0
-231 -235 236 0
74 -237 0
8 -237 0
-74 -8 237 0
-236 222 0
-237 222 0
236 237 -222 0
224 -238 0
228 -238 0
232 -238 0
235 -238 0
-224 -228 -232 -235 238 0
237 -239 0
-237 239 0
221 -240 0
238 -240 0
-221 -238 240 0
-240 241 0
-222 241 0
240 222 -241 0
9 75 -244 0
-9 75 244 0
9 -75 244 0
-9 -75 -244 0
244 241 -141 0
-244 241 141 0
244 -241 141 0
-244 -241 -141 0
241 -245 0
244 -245 0
-241 -244 245 0
75 -246 0
9 -246 0
-75 -9 246 0
-245 243 0
-246 243 0
245 246 -243 0
10 76 -248 0
-10 76 248 0
10 -76 248 0
-10 -76 -248 0
248 243 -142 0
-248 243 142 0
248 -243 142 0
-248 -243 -142 0
243 -249 0
248 -249 0
-243 -248 249 0
76 -250 0
10 -250 0
-76 -10 250 0
-249 247 0
-250 247 0
249 250 -247 0
11 77 -252 0
-11 77 252 0
11 -77 252 0
-11 -77 -252 0
252 247 -143 0
-252 247 143 0
252 -247 143 0
-252 -247 -143 0
247 -253 0
252 -253 0
-247 -252 253 0
77 -254 0
11 -254 0
-77 -11 254 0
-253 251 0
-254 251 0
253 254 -251 0
12 78 -255 0
-12 78 255 0
12 -78 255 0
-12 -78 -255 0
255 251 -144 0
-255 251 144 0
255 -251 144 0
-255 -251 -144 0
251 -256 0
255 -256 0
-251 -255 256 0
78 -257 0
12 -257 0
-78 -12 257 0
-256 242 0
-257 242 0
256 257 -242 0
244 -258 0
248 -258 0
252 -258 0
255 -258 0
-244 -248 -252 -255 258 0
257 -259 0
-257 259 0
241 -260 0
258 -260 0
-241 -258 260 0
-260 261 0
-242 261 0
260 242 -261 0
13 79 -264 0
-13 79 264 0
13 -79 264 0
-13 -79 -264 0
264 261 -145 0
-264 261 145 0
264 -261 145 0
-264 -261 -145 0
261 -265 0
264 -265 0
-261 -264 265 0
79 -266 0
13 -266 0
-79 -13 266 0
-265 263 0
-266 263 0
265 266 -263 0
14 80 -268 0
-14 80 268 0
14 -80 268 0
-14 -80 -268 0
268 263 -146 0
-268 263 146 0
268 -263 146 0
-268 -263 -146 0
263 -269 0
268 -269 0
-263 -268 269 0
80 -270 0
14 -270 0
-80 -14 270 0
-269 267 0
-270 267 0
269 270 -267 0
15 81 -272 0
-15 81 272 0
15 -81 272 0
-15 -81 -272 0
272 267 -147 0
-272 267 147 0
272 -267 147 0
-272 -267 -147 0
267 -273 0
272 -273 0
-267 -272 273 0
81 -274 0
15 -274 0
-81 -15 274 0
-273 271 0
-274 271 0
273 274 -271 0
16 82 -275 0
-16 82 275 0
16 -82 275 0
-16 -82 -275 0
275 271 -148 0
-275 271 148 0
275 -271 148 0
-275 -271 -148 0
271 -276 0
275 -276 0
-271 -275 276 0
82 -277 0
16 -277 0
-82 -16 277 0
-276 262 0
-277 262 0
276 277 -262 0
264 -278 0
268 -278 0
272 -278 0
275 -278 0
-264 -268 -272 -275 278 0
277 -279 0
-277 279 0
261 -280 0
278 -280 0
-261 -278 280 0
-280 281 0
-262 281 0
280 262 -281 0
17 83 -284 0
-17 83 284 0
17 -83 284 0
-17 -83 -284 0
284 281 -149 0
-284 281 149 0
284 -281 149 0
-284 -281 -149 0
281 -285 0
284 -285 0
-281 -284 285 0
83 -286 0
17 -286 0
-83 -17 286 0
-285 283 0
-286 283 0
285 286 -283 0
18 84 -288 0
-18 84 288 0
18 -84 288 0
-18 -84 -288 0
288 283 -150 0
-288 283 150 0
288 -283 150 0
-288 -283 -150 0
283 -289 0
288 -289 0
-283 -288 289 0
84 -290 0
18 -290 0
-84 -18 290 0
-289 287 0
-290 287 0
289 290 -287 0
19 85 -292 0
-19 85 292 0
19 -85 292 0
-19 -85 -292 0
292 287 -151 0
-292 287 151 0
292 -287 151 0
-292 -287 -151 0
287 -293 0
292 -293 0
-287 -292 293 0
85 -294 0
19 -294 0
-85 -19 294 0
-293 291 0
-294 291 0
293 294 -291 0
20 86 -295 0
-20 86 295 0
20 -86 295 0
-20 -86 -295 0
295 291 -152 0
-295 291 152 0
295 -291 152 0
-295 -291 -152 0
291 -296 0
295 -296 0
-291 -295 296 0
86 -297 0
20 -297 0
-86 -20 297 0
-296 282 0
-297 282 0
296 297 -282 0
284 -298 0
288 -298 0
292 -298 0
295 -298 0
-284 -288 -292 -295 298 0
297 -299 0
-297 299 0
281 -300 0
298 -300 0
-281 -298 300 0
-300 301 0
-282 301 0
300 282 -301 0
21 87 -304 0
-21 87 304 0
21 -87 304 0
-21 -87 -304 0
304 301 -153 0
-304 301 153 0
304 -301 153 0
-304 -301 -153 0
301 -305 0
304 -305 0
-301 -304 305 0
87 -306 0
21 -306 0
-87 -21 306 0
-305 303 0
-306 303 0
305 306 -303 0
22 88 -308 0
-22 88 308 0
22 -88 308 0
-22 -88 -308 0
308 303 -154 0
-308 303 154 0
308 -303 154 0
-308 -303 -154 0
303 -309 0
308 -309 0
-303 -308 309 0
88 -310 0
22 -310 0
-88 -22 310 0
-309 307 0
-310 307 0
309 310 -307 0
23 89 -312 0
-23 89 312 0
23 -89 312 0
-23 -89 -312 0
312 307 -155 0
-312 307 155 0
312 -307 155 0
-312 -307 -155 0
307 -313 0
312 -313 0
-307 -312 313 0
89 -314 0
23 -314 0
-89 -23 314 0
-313 311 0
-314 311 0
313 314 -311 0
24 90 -315 0
-24 90 315 0
24 -90 315 0
-24 -90 -315 0
315 311 -156 0
-315 311 156 0
315 -311 156 0
-315 -311 -156 0
311 -316 0
315 -316 0
-311 -315 316 0
90 -317 0
24 -317 0
-90 -24 317 0
-316 302 0
-317 302 0
316 317 -302 0
304 -318 0
308 -318 0
312 -318 0
315 -318 0
-304 -308 -312 -315 318 0
317 -319 0
-317 319 0
301 -320 0
318 -320 0
-301 -318 320 0
-320 321 0
-302 321 0
320 302 -321 0
25 91 -324 0
-25 91 324 0
25 -91 324 0
-25 -91 -324 0
324 321 -157 0
-324 321 157 0
324 -321 157 0
-324 -321 -157 0
321 -325 0
324 -325 0
-321 -324 325 0
91 -326 0
25 -326 0
-91 -25 326 0
-325 323 0
-326 323 0
325 326 -323 0
26 92 -328 0
-26 92 328 0
26 -92 328 0
-26 -92 -328 0
328 323 -158 0
-328 323 158 0
328 -323 158 0
-328 -323 -158 0
323 -329 0
328 -329 0
-323 -328 329 0
92 -330 0
26 -330 0
-92 -26 330 0
-329 327 0
-330 327 0
329 330 -327 0
27 93 -332 0
-27 93 332 0
27 -93 332 0
-27 -93 -332 0
332 327 -159 0
-332 327 159 0
332 -327 159 0
-332 -327 -159 0
327 -333 0
332 -333 0
-327 -332 333 0
93 -334 0
27 -334 0
-93 -27 334 0
-333 331 0
-334 331 0
333 334 -331 0
28 94 -335 0
-28 94 335 0
28 -94 335 0
-28 -94 -335 0
335 331 -160 0
-335 331 160 0
335 -331 160 0
-335 -331 -160 0
331 -336 0
335 -336 0
-331 -335 336 0
94 -337 0
28 -337 0
-94 -28 337 0
-336 322 0
-337 322 0
336 337 -322 0
324 -338 0
328 -338 0
332 -338 0
335 -338 0
-324 -328 -332 -335 338 0
337 -339 0
-337 339 0
321 -340 0
338 -340 0
-321 -338 340 0
-340 341 0
-322 341 0
340 322 -341 0
29 95 -344 0
-29 95 344 0
29 -95 344 0
-29 -95 -344 0
344 341 -161 0
-344 341 161 0
344 -341 161 0
-344 -341 -161 0
341 -345 0
344 -345 0
-341 -344 345 0
95 -346 0
29 -346 0
-95 -29 346 0
-345 343 0
-346 343 0
345 346 -343 0
30 96 -348 0
-30 96 348 0
30 -96 348 0
-30 -96 -348 0
348 343 -162 0
-348 343 162 0
348 -343 162 0
-348 -343 -162 0
343 -349 0
348 -349 0
-343 -348 349 0
96 -350 0
30 -350 0
-96 -30 350 0
-349 347 0
-350 347 0
349 350 -347 0
31 97 -352 0
-31 97 352 0
31 -97 352 0
-31 -97 -352 0
352 347 -163 0
-352 347 163 0
352 -347 163 0
-352 -347 -163 0
347 -353 0
352 -353 0
-347 -352 353 0
97 -354 0
31 -354 0
-97 -31 354 0
-353 351 0
-354 351 0
353 354 -351 0
32 98 -355 0
-32 98 355 0
32 -98 355 0
-32 -98 -355 0
355 351 -164 0
-355 351 164 0
355 -351 164 0
-355 -351 -164 0
351 -356 0
355 -356 0
-351 -355 356 0
98 -357 0
32 -357 0
-98 -32 357 0
-356 342 0
-357 342 0
356 357 -342 0
344 -358 0
348 -358 0
352 -358 0
355 -358 0
-344 -348 -352 -355 358 0
357 -359 0
-357 359 0
341 -360 0
358 -360 0
-341 -358 360 0
-360 361 0
-342 361 0
360 342 -361 0
33 99 -364 0
-33 99 364 0
33 -99 364 0
-33 -99 -364 0
364 361 -165 0
-364 361 165 0
364 -361 165 0
-364 -361 -165 0
361 -365 0
364 -365 0
-361 -364 365 0
99 -366 0
33 -366 0
-99 -33 366 0
-365 363 0
-366 363 0
365 366 -363 0
34 100 -368 0
-34 100 368 0
34 -100 368 0
-34 -100 -368 0
368 363 -166 0
-368 363 166 0
368 -363 166 0
-368 -363 -166 0
363 -369 0
368 -369 0
-363 -368 369 0
100 -370 0
34 -370 0
-100 -34 370 0
-369 367 0
-370 367 0
369 370 -367 0
35 101 -372 0
-35 101 372 0
35 -101 372 0
-35 -101 -372 0
372 367 -167 0
-372 367 167 0
372 -367 167 0
-372 -367 -167 0
367 -373 0
372 -373 0
-367 -372 373 0
101 -374 0
35 -374 0
-101 -35 374 0
-373 371 0
-374 371 0
373 374 -371 0
36 102 -375 0
-36 102 375 0
36 -102 375 0
-36 -102 -375 0
375 371 -168 0
-375 371 168 0
375 -371 168 0
-375 -371 -168 0
371 -376 0
375 -376 0
-371 -375 376 0
102 -377 0
36 -377 0
-102 -36 377 0
-376 362 0
-377 362 0
376 377 -362 0
364 -378 0
368 -378 0
372 -378 0
375 -378 0
-364 -368 -372 -375 378 0
377 -379 0
-377 379 0
361 -380 0
378 -380 0
-361 -378 380 0
-380 381 0
-362 381 0
380 362 -381 0
37 103 -384 0
-37 103 384 0
37 -103 384 0
-37 -103 -384 0
384 381 -169 0
-384 381 169 0
384 -381 169 0
-384 -381 -169 0
381 -385 0
384 -385 0
-381 -384 385 0
103 -386 0
37 -386 0
-103 -37 386 0
-385 383 0
-386 383 0
385 386 -383 0
38 104 -388 0
-38 104 388 0
38 -104 388 0
-38 -104 -388 0
388 383 -170 0
-388 383 170 0
388 -383 170 0
-388 -383 -170 0
383 -389 0
388 -389 0
-383 -388 389 0
104 -390 0
38 -390 0
-104 -38 390 0
-389 387 0
-390 387 0
389 390 -387 0
39 105 -392 0
-39 105 392 0
39 -105 392 0
-39 -105 -392 0
392 387 -171 0
-392 387 171 0
392 -387 171 0
-392 -387 -171 0
387 -393 0
392 -393 0
-387 -392 393 0
105 -394 0
39 -394 0
-105 -39 394 0
-393 391 0
-394 391 0
393 394 -391 0
40 106 -395 0
-40 106 395 0
40 -106 395 0
-40 -106 -395 0
395 391 -172 0
-395 391 172 0
395 -391 172 0
-395 -391 -172 0
391 -396 0
395 -396 0
-391 -395 396 0
106 -397 0
40 -397 0
-106 -40 397 0
-396 382 0
-397 382 0
396 397 -382 0
384 -398 0
388 -398 0
392 -398 0
395 -398 0
-384 -388 -392 -395 398 0
397 -399 0
-397 399 0
381 -400 0
398 -400 0
-381 -398 400 0
-400 401 0
-382 401 0
400 382 -401 0
41 107 -404 0
-41 107 404 0
41 -107 404 0
-41 -107 -404 0
404 401 -173 0
-404 401 173 0
404 -401 173 0
-404 -401 -173 0
401 -405 0
404 -405 0
-401 -404 405 0
107 -406 0
41 -406 0
-107 -41 406 0
-405 403 0
-406 403 0
405 406 -403 0
42 108 -408 0
-42 108 408 0
42 -108 408 0
-42 -108 -408 0
408 403 -174 0
-408 403 174 0
408 -403 174 0
-408 -403 -174 0
403 -409 0
408 -409 0
-403 -408 409 0
108 -410 0
42 -410 0
-108 -42 410 0
-409 407 0
-410 407 0
409 410 -407 0
43 109 -412 0
-43 109 412 0
43 -109 412 0
-43 -109 -412 0
412 407 -175 0
-412 407 175 0
412 -407 175 0
-412 -407 -175 0
407 -413 0
412 -413 0
-407 -412 413 0
109 -414 0
43 -414 0
-109 -43 414 0
-413 411 0
-414 411 0
413 414 -411 0
44 110 -415 0
-44 110 415 0
44 -110 415 0
-44 -110 -415 0
415 411 -176 0
-415 411 176 0
415 -411 176 0
-415 -411 -176 0
411 -416 0
415 -416 0
-411 -415 416 0
110 -417 0
44 -417 0
-110 -44 417 0
-416 402 0
-417 402 0
416 417 -402 0
404 -418 0
408 -418 0
412 -418 0
415 -418 0
-404 -408 -412 -415 418 0
417 -419 0
-417 419 0
401 -420 0
418 -420 0
-401 -418 420 0
-420 421 0
-402 421 0
420 402 -421 0
45 111 -424 0
-45 111 424 0
45 -111 424 0
-45 -111 -424 0
424 421 -177 0
-424 421 177 0
424 -421 177 0
-424 -421 -177 0
421 -425 0
424 -425 0
-421 -424 425 0
111 -426 0
45 -426 0
-111 -45 426 0
-425 423 0
-426 423 0
425 426 -423 0
46 112 -428 0
-46 112 428 0
46 -112 428 0
-46 -112 -428 0
428 423 -178 0
-428 423 178 0
428 -423 178 0
-428 -423 -178 0
423 -429 0
428 -429 0
-423 -428 429 0
112 -430 0
46 -430 0
-112 -46 430 0
-429 427 0
-430 427 0
429 430 -427 0
47 113 -432 0
-47 113 432 0
47 -113 432 0
-47 -113 -432 0
432 427 -179 0
-432 427 179 0
432 -427 179 0
-432 -427 -179 0
427 -433 0
432 -433 0
-427 -432 433 0
113 -434 0
47 -434 0
-113 -47 434 0
-433 431 0
-434 431 0
433 434 -431 0
48 114 -435 0
-48 114 435 0
48 -114 435 0
-48 -114 -435 0
435 431 -180 0
-435 431 180 0
435 -431 180 0
-435 -431 -180 0
431 -436 0
435 -436 0
-431 -435 436 0
114 -437 0
48 -437 0
-114 -48 437 0
-436 422 0
-437 422 0
436 437 -422 0
424 -438 0
428 -438 0
432 -438 0
435 -438 0
-424 -428 -432 -435 438 0
437 -439 0
-437 439 0
421 -440 0
438 -440 0
-421 -438 440 0
-440 441 0
-422 441 0
440 422 -441 0
49 115 -444 0
-49 115 444 0
49 -115 444 0
-49 -115 -444 0
444 441 -181 0
-444 441 181 0
444 -441 181 0
-444 -441 -181 0
441 -445 0
444 -445 0
-441 -444 445 0
115 -446 0
49 -446 0
-115 -49 446 0
-445 443 0
-446 443 0
445 446 -443 0
50 116 -448 0
-50 116 448 0
50 -116 448 0
-50 -116 -448 0
448 443 -182 0
-448 443 182 0
448 -443 182 0
-448 -443 -182 0
443 -449 0
448 -449 0
-443 -448 449 0
116 -450 0
50 -450 0
-116 -50 450 0
-449 447 0
-450 447 0
449 450 -447 0
51 117 -452 0
-51 117 452 0
51 -117 452 0
-51 -117 -452 0
452 447 -183 0
-452 447 183 0
452 -447 183 0
-452 -447 -183 0
447 -453 0
452 -453 0
-447 -452 453 0
117 -454 0
51 -454 0
-117 -51 454 0
-453 451 0
-454 451 0
453 454 -451 0
52 118 -455 0
-52 118 455 0
52 -118 455 0
-52 -118 -455 0
455 451 -184 0
-455 451 184 0
455 -451 184 0
-455 -451 -184 0
451 -456 0
455 -456 0
-451 -455 456 0
118 -457 0
52 -457 0
-118 -52 457 0
-456 442 0
-457 442 0
456 457 -442 0
444 -458 0
448 -458 0
452 -458 0
455 -458 0
-444 -448 -452 -455 458 0
457 -459 0
-457 459 0
441 -460 0
458 -460 0
-441 -458 460 0
-460 461 0
-442 461 0
460 442 -461 0
53 119 -464 0
-53 119 464 0
53 -119 464 0
-53 -119 -464 0
464 461 -185 0
-464 461 185 0
464 -461 185 0
-464 -461 -185 0
461 -465 0
464 -465 0
-461 -464 465 0
119 -466 0
53 -466 0
-119 -53 466 0
-465 463 0
-466 463 0
465 466 -463 0
54 120 -468 0
-54 120 468 0
54 -120 468 0
-54 -120 -468 0
468 463 -186 0
-468 463 186 0
468 -463 186 0
-468 -463 -186 0
463 -469 0
468 -469 0
-463 -468 469 0
120 -470 0
54 -470 0
-120 -54 470 0
-469 467 0
-470 467 0
469 470 -467 0
55 121 -472 0
-55 121 472 0
55 -121 472 0
-55 -121 -472 0
472 467 -187 0
-472 467 187 0
472 -467 187 0
-472 -467 -187 0
467 -473 0
472 -473 0
-467 -472 473 0
121 -474 0
55 -474 0
-121 -55 474 0
-473 471 0
-474 471 0
473 474 -471 0
56 122 -475 0
-56 122 475 0
56 -122 475 0
-56 -122 -475 0
475 471 -188 0
-475 471 188 0
475 -471 188 0
-475 -471 -188 0
471 -476 0
475 -476 0
-471 -475 476 0
122 -477 0
56 -477 0
-122 -56 477 0
-476 462 0
-477 462 0
476 477 -462 0
464 -478 0
468 -478 0
472 -478 0
475 -478 0
-464 -468 -472 -475 478 0
477 -479 0
-477 479 0
461 -480 0
478 -480 0
-461 -478 480 0
-480 481 0
-462 481 0
480 462 -481 0
57 123 -484 0
-57 123 484 0
57 -123 484 0
-57 -123 -484 0
484 481 -189 0
-484 481 189 0
484 -481 189 0
-484 -481 -189 0
481 -485 0
484 -485 0
-481 -484 485 0
123 -486 0
57 -486 0
-123 -57 486 0
-485 483 0
-486 483 0
485 486 -483 0
58 124 -488 0
-58 124 488 0
58 -124 488 0
-58 -124 -488 0
488 483 -190 0
-488 483 190 0
488 -483 190 0
-488 -483 -190 0
483 -489 0
488 -489 0
-483 -488 489 0
124 -490 0
58 -490 0
-124 -58 490 0
-489 487 0
-490 487 0
489 490 -487 0
59 125 -492 0
-59 125 492 0
59 -125 492 0
-59 -125 -492 0
492 487 -191 0
-492 487 191 0
492 -487 191 0
-492 -487 -191 0
487 -493 0
492 -493 0
-487 -492 493 0
125 -494 0
59 -494 0
-125 -59 494 0
-493 491 0
-494 491 0
493 494 -491 0
60 126 -495 0
-60 126 495 0
60 -126 495 0
-60 -126 -495 0
495 491 -192 0
-495 491 192 0
495 -491 192 0
-495 -491 -192 0
491 -496 0
495 -496 0
-491 -495 496 0
126 -497 0
60 -497 0
-126 -60 497 0
-496 482 0
-497 482 0
496 497 -482 0
484 -498 0
488 -498 0
492 -498 0
495 -498 0
-484 -488 -492 -495 498 0
497 -499 0
-497 499 0
481 -500 0
498 -500 0
-481 -498 500 0
-500 501 0
-482 501 0
500 482 -501 0
61 127 -504 0
-61 127 504 0
61 -127 504 0
-61 -127 -504 0
504 501 -193 0
-504 501 193 0
504 -501 193 0
-504 -501 -193 0
501 -505 0
504 -505 0
-501 -504 505 0
127 -506 0
61 -506 0
-127 -61 506 0
-505 503 0
-506 503 0
505 506 -503 0
62 128 -508 0
-62 128 508 0
62 -128 508 0
-62 -128 -508 0
508 503 -194 0
-508 503 194 0
508 -503 194 0
-508 -503 -194 0
503 -509 0
508 -509 0
-503 -508 509 0
128 -510 0
62 -510 0
-128 -62 510 0
-509 507 0
-510 507 0
509 510 -507 0
63 129 -512 0
-63 129 512 0
63 -129 512 0
-63 -129 -512 0
512 507 -195 0
-512 507 195 0
512 -507 195 0
-512 -507 -195 0
507 -513 0
512 -513 0
-507 -512 513 0
129 -514 0
63 -514 0
-129 -63 514 0
-513 511 0
-514 511 0
513 514 -511 0
64 130 -515 0
-64 130 515 0
64 -130 515 0
-64 -130 -515 0
515 511 -196 0
-515 511 196 0
515 -511 196 0
-515 -511 -196 0
511 -516 0
515 -516 0
-511 -515 516 0
130 -517 0
64 -517 0
-130 -64 517 0
-516 502 0
-517 502 0
516 517 -502 0
504 -518 0
508 -518 0
512 -518 0
515 -518 0
-504 -508 -512 -515 518 0
517 -519 0
-517 519 0
501 -520 0
518 -520 0
-501 -518 520 0
-520 521 0
-502 521 0
520 502 -521 0
65 131 -524 0
-65 131 524 0
65 -131 524 0
-65 -131 -524 0
524 521 -197 0
-524 521 197 0
524 -521 197 0
-524 -521 -197 0
521 -525 0
524 -525 0
-521 -524 525 0
131 -526 0
65 -526 0
-131 -65 526 0
-525 523 0
-526 523 0
525 526 -523 0
66 132 -527 0
-66 132 527 0
66 -132 527 0
-66 -132 -527 0
527 523 -198 0
-527 523 198 0
527 -523 198 0
-527 -523 -198 0
523 -528 0
527 -528 0
-523 -527 528 0
132 -529 0
66 -529 0
-132 -66 529 0
-528 522 0
-529 522 0
528 529 -522 0
524 -530 0
527 -530 0
-524 -527 530 0
529 -531 0
-529 531 0
521 -532 0
530 -532 0
-521 -530 532 0
-532 533 0
-522 533 0
532 522 -533 0
533 -199 0
-533 199 0
